
Gurobi 9.1.0 (win64) logging started Sat Dec 12 22:34:34 2020

Changed value of parameter LogFile to logs/iteration11
   Prev:   Default: 
Gurobi Optimizer version 9.1.0 build v9.1.0rc0 (win64)
Thread count: 4 physical cores, 8 logical processors, using up to 8 threads
Optimize a model with 136 rows, 636 columns and 2549 nonzeros
Model fingerprint: 0x1c6ecb8d
Coefficient statistics:
  Matrix range     [1e+00, 1e+00]
  Objective range  [1e+03, 4e+03]
  Bounds range     [0e+00, 0e+00]
  RHS range        [1e+00, 1e+00]
Presolve removed 27 rows and 27 columns
Presolve time: 0.00s
Presolved: 109 rows, 609 columns, 2521 nonzeros

Iteration    Objective       Primal Inf.    Dual Inf.      Time
       0    7.5777667e+04   8.300000e+01   0.000000e+00      0s
     331    1.0888642e+05   0.000000e+00   0.000000e+00      0s

Solved in 331 iterations and 0.01 seconds
Optimal objective  1.088864167e+05

Solutionx[5] 0.367188 
x[12] 0.382812 
x[24] 1.000000 
x[26] 0.304687 
x[27] 0.695313 
x[37] 1.000000 
x[41] 0.187500 
x[43] 0.437500 
x[44] 0.250000 
x[45] 0.125000 
x[46] 0.250000 
x[47] 0.250000 
x[54] 1.000000 
x[55] 1.000000 
x[60] 0.750000 
x[64] 1.000000 
x[65] 0.250000 
x[67] 0.500000 
x[70] 1.000000 
x[71] 0.500000 
x[72] 1.000000 
x[74] 1.000000 
x[76] 1.000000 
x[77] 1.000000 
x[78] 1.000000 
x[82] 1.000000 
x[83] 1.000000 
x[92] 0.750000 
x[100] 0.250000 
x[101] 1.000000 
x[102] 1.000000 
x[103] 1.000000 
x[104] 1.000000 
x[107] 1.000000 
x[113] 1.000000 
x[117] 1.000000 
x[118] 1.000000 
x[119] 0.250000 
x[121] 0.750000 
x[122] 1.000000 
x[123] 0.500000 
x[124] 1.000000 
x[125] 0.750000 
x[126] 1.000000 
x[127] 1.000000 
x[128] 1.000000 
x[129] 1.000000 
x[130] 1.000000 
x[131] 1.000000 
x[132] 1.000000 
x[133] 0.250000 
x[134] 1.000000 
x[135] 1.000000 
x[264] 0.171875 
x[436] 0.218750 
x[595] 0.093750 
x[728] 0.250000 
x[810] 0.750000 
x[819] 0.375000 
x[821] 0.375000 
x[1733] 0.109375 
x[1808] 0.125000 
x[2456] 0.625000 
x[2542] 0.046875 
x[2863] 0.078125 
x[5967] 0.125000 
x[9189] 0.250000 
x[19102] 0.765625 
x[22799] 0.062500 
x[29392] 0.625000 
x[1809] 0.171875 
x[9171] 0.750000 
x[1268] 0.359375 
x[6722] 0.250000 
x[6754] 0.250000 
x[8411] 0.250000 
x[15566] 0.250000 
x[16684] 0.140625 
x[389] 0.125000 
x[517] 0.218750 
x[607] 0.015625 
x[879] 0.625000 
x[887] 0.375000 
x[989] 0.453125 
x[1078] 0.468750 
x[3365] 0.382813 
x[19984] 0.367188 
x[20039] 0.250000 
x[1615] 0.250000 
x[26686] 0.125000 
x[33012] 0.125000 
x[30937] 1.000000 
x[8183] 0.750000 
x[13960] 0.250000 
x[10628] 0.234375 
x[1687] 0.015625 
x[13171] 0.031250 
x[8187] 0.500000 
x[26775] 0.156250 
x[1476] 0.312500 
x[29497] 0.125000 
x[12310] 0.500000 
x[32577] 0.875000 
x[12011] 0.375000 
x[32137] 0.125000 
x[10657] 0.218750 
x[7088] 0.531250 
x[20845] 0.171875 
x[29724] 0.078125 
x[5984] 0.304687 
x[6057] 0.078125 
x[19131] 0.617187 
x[14661] 0.500000 
x[356] 0.250000 
x[12247] 0.750000 

Gurobi 9.1.0 (win64) logging started Sun Dec 13 15:16:52 2020

Changed value of parameter LogFile to logs/iteration11
   Prev:   Default: 
Gurobi Optimizer version 9.1.0 build v9.1.0rc0 (win64)
Thread count: 4 physical cores, 8 logical processors, using up to 8 threads
Optimize a model with 136 rows, 636 columns and 2549 nonzeros
Model fingerprint: 0x1c6ecb8d
Coefficient statistics:
  Matrix range     [1e+00, 1e+00]
  Objective range  [1e+03, 4e+03]
  Bounds range     [0e+00, 0e+00]
  RHS range        [1e+00, 1e+00]
Presolve removed 27 rows and 27 columns
Presolve time: 0.00s
Presolved: 109 rows, 609 columns, 2521 nonzeros

Iteration    Objective       Primal Inf.    Dual Inf.      Time
       0    7.5777667e+04   8.300000e+01   0.000000e+00      0s
     331    1.0888642e+05   0.000000e+00   0.000000e+00      0s

Solved in 331 iterations and 0.01 seconds
Optimal objective  1.088864167e+05

Solutionx[5] 0.367188 
x[12] 0.382812 
x[24] 1.000000 
x[26] 0.304687 
x[27] 0.695313 
x[37] 1.000000 
x[41] 0.187500 
x[43] 0.437500 
x[44] 0.250000 
x[45] 0.125000 
x[46] 0.250000 
x[47] 0.250000 
x[54] 1.000000 
x[55] 1.000000 
x[60] 0.750000 
x[64] 1.000000 
x[65] 0.250000 
x[67] 0.500000 
x[70] 1.000000 
x[71] 0.500000 
x[72] 1.000000 
x[74] 1.000000 
x[76] 1.000000 
x[77] 1.000000 
x[78] 1.000000 
x[82] 1.000000 
x[83] 1.000000 
x[92] 0.750000 
x[100] 0.250000 
x[101] 1.000000 
x[102] 1.000000 
x[103] 1.000000 
x[104] 1.000000 
x[107] 1.000000 
x[113] 1.000000 
x[117] 1.000000 
x[118] 1.000000 
x[119] 0.250000 
x[121] 0.750000 
x[122] 1.000000 
x[123] 0.500000 
x[124] 1.000000 
x[125] 0.750000 
x[126] 1.000000 
x[127] 1.000000 
x[128] 1.000000 
x[129] 1.000000 
x[130] 1.000000 
x[131] 1.000000 
x[132] 1.000000 
x[133] 0.250000 
x[134] 1.000000 
x[135] 1.000000 
x[264] 0.171875 
x[436] 0.218750 
x[595] 0.093750 
x[728] 0.250000 
x[810] 0.750000 
x[819] 0.375000 
x[821] 0.375000 
x[1733] 0.109375 
x[1808] 0.125000 
x[2456] 0.625000 
x[2542] 0.046875 
x[2863] 0.078125 
x[5967] 0.125000 
x[9189] 0.250000 
x[19102] 0.765625 
x[22799] 0.062500 
x[29392] 0.625000 
x[1809] 0.171875 
x[9171] 0.750000 
x[1268] 0.359375 
x[6722] 0.250000 
x[6754] 0.250000 
x[8411] 0.250000 
x[15566] 0.250000 
x[16684] 0.140625 
x[389] 0.125000 
x[517] 0.218750 
x[607] 0.015625 
x[879] 0.625000 
x[887] 0.375000 
x[989] 0.453125 
x[1078] 0.468750 
x[3365] 0.382813 
x[19984] 0.367188 
x[20039] 0.250000 
x[1615] 0.250000 
x[26686] 0.125000 
x[33012] 0.125000 
x[30937] 1.000000 
x[8183] 0.750000 
x[13960] 0.250000 
x[10628] 0.234375 
x[1687] 0.015625 
x[13171] 0.031250 
x[8187] 0.500000 
x[26775] 0.156250 
x[1476] 0.312500 
x[29497] 0.125000 
x[12310] 0.500000 
x[32577] 0.875000 
x[12011] 0.375000 
x[32137] 0.125000 
x[10657] 0.218750 
x[7088] 0.531250 
x[20845] 0.171875 
x[29724] 0.078125 
x[5984] 0.304687 
x[6057] 0.078125 
x[19131] 0.617187 
x[14661] 0.500000 
x[356] 0.250000 
x[12247] 0.750000 

Gurobi 9.1.0 (win64) logging started Sun Dec 13 15:18:38 2020

Changed value of parameter LogFile to logs/iteration11
   Prev:   Default: 
Gurobi Optimizer version 9.1.0 build v9.1.0rc0 (win64)
Thread count: 4 physical cores, 8 logical processors, using up to 8 threads
Optimize a model with 136 rows, 636 columns and 2549 nonzeros
Model fingerprint: 0x1c6ecb8d
Coefficient statistics:
  Matrix range     [1e+00, 1e+00]
  Objective range  [1e+03, 4e+03]
  Bounds range     [0e+00, 0e+00]
  RHS range        [1e+00, 1e+00]
Presolve removed 27 rows and 27 columns
Presolve time: 0.00s
Presolved: 109 rows, 609 columns, 2521 nonzeros

Iteration    Objective       Primal Inf.    Dual Inf.      Time
       0    7.5777667e+04   8.300000e+01   0.000000e+00      0s
     331    1.0888642e+05   0.000000e+00   0.000000e+00      0s

Solved in 331 iterations and 0.01 seconds
Optimal objective  1.088864167e+05

Solutionx[5] 0.367188 
x[12] 0.382812 
x[24] 1.000000 
x[26] 0.304687 
x[27] 0.695313 
x[37] 1.000000 
x[41] 0.187500 
x[43] 0.437500 
x[44] 0.250000 
x[45] 0.125000 
x[46] 0.250000 
x[47] 0.250000 
x[54] 1.000000 
x[55] 1.000000 
x[60] 0.750000 
x[64] 1.000000 
x[65] 0.250000 
x[67] 0.500000 
x[70] 1.000000 
x[71] 0.500000 
x[72] 1.000000 
x[74] 1.000000 
x[76] 1.000000 
x[77] 1.000000 
x[78] 1.000000 
x[82] 1.000000 
x[83] 1.000000 
x[92] 0.750000 
x[100] 0.250000 
x[101] 1.000000 
x[102] 1.000000 
x[103] 1.000000 
x[104] 1.000000 
x[107] 1.000000 
x[113] 1.000000 
x[117] 1.000000 
x[118] 1.000000 
x[119] 0.250000 
x[121] 0.750000 
x[122] 1.000000 
x[123] 0.500000 
x[124] 1.000000 
x[125] 0.750000 
x[126] 1.000000 
x[127] 1.000000 
x[128] 1.000000 
x[129] 1.000000 
x[130] 1.000000 
x[131] 1.000000 
x[132] 1.000000 
x[133] 0.250000 
x[134] 1.000000 
x[135] 1.000000 
x[264] 0.171875 
x[436] 0.218750 
x[595] 0.093750 
x[728] 0.250000 
x[810] 0.750000 
x[819] 0.375000 
x[821] 0.375000 
x[1733] 0.109375 
x[1808] 0.125000 
x[2456] 0.625000 
x[2542] 0.046875 
x[2863] 0.078125 
x[5967] 0.125000 
x[9189] 0.250000 
x[19102] 0.765625 
x[22799] 0.062500 
x[29392] 0.625000 
x[1809] 0.171875 
x[9171] 0.750000 
x[1268] 0.359375 
x[6722] 0.250000 
x[6754] 0.250000 
x[8411] 0.250000 
x[15566] 0.250000 
x[16684] 0.140625 
x[389] 0.125000 
x[517] 0.218750 
x[607] 0.015625 
x[879] 0.625000 
x[887] 0.375000 
x[989] 0.453125 
x[1078] 0.468750 
x[3365] 0.382813 
x[19984] 0.367188 
x[20039] 0.250000 
x[1615] 0.250000 
x[26686] 0.125000 
x[33012] 0.125000 
x[30937] 1.000000 
x[8183] 0.750000 
x[13960] 0.250000 
x[10628] 0.234375 
x[1687] 0.015625 
x[13171] 0.031250 
x[8187] 0.500000 
x[26775] 0.156250 
x[1476] 0.312500 
x[29497] 0.125000 
x[12310] 0.500000 
x[32577] 0.875000 
x[12011] 0.375000 
x[32137] 0.125000 
x[10657] 0.218750 
x[7088] 0.531250 
x[20845] 0.171875 
x[29724] 0.078125 
x[5984] 0.304687 
x[6057] 0.078125 
x[19131] 0.617187 
x[14661] 0.500000 
x[356] 0.250000 
x[12247] 0.750000 

Gurobi 9.1.0 (win64) logging started Sun Dec 13 15:22:13 2020

Changed value of parameter LogFile to logs/iteration11
   Prev:   Default: 
Gurobi Optimizer version 9.1.0 build v9.1.0rc0 (win64)
Thread count: 4 physical cores, 8 logical processors, using up to 8 threads
Optimize a model with 136 rows, 636 columns and 2549 nonzeros
Model fingerprint: 0x1c6ecb8d
Coefficient statistics:
  Matrix range     [1e+00, 1e+00]
  Objective range  [1e+03, 4e+03]
  Bounds range     [0e+00, 0e+00]
  RHS range        [1e+00, 1e+00]
Presolve removed 27 rows and 27 columns
Presolve time: 0.00s
Presolved: 109 rows, 609 columns, 2521 nonzeros

Iteration    Objective       Primal Inf.    Dual Inf.      Time
       0    7.5777667e+04   8.300000e+01   0.000000e+00      0s
     331    1.0888642e+05   0.000000e+00   0.000000e+00      0s

Solved in 331 iterations and 0.01 seconds
Optimal objective  1.088864167e+05

Solutionx[5] 0.367188 
x[12] 0.382812 
x[24] 1.000000 
x[26] 0.304687 
x[27] 0.695313 
x[37] 1.000000 
x[41] 0.187500 
x[43] 0.437500 
x[44] 0.250000 
x[45] 0.125000 
x[46] 0.250000 
x[47] 0.250000 
x[54] 1.000000 
x[55] 1.000000 
x[60] 0.750000 
x[64] 1.000000 
x[65] 0.250000 
x[67] 0.500000 
x[70] 1.000000 
x[71] 0.500000 
x[72] 1.000000 
x[74] 1.000000 
x[76] 1.000000 
x[77] 1.000000 
x[78] 1.000000 
x[82] 1.000000 
x[83] 1.000000 
x[92] 0.750000 
x[100] 0.250000 
x[101] 1.000000 
x[102] 1.000000 
x[103] 1.000000 
x[104] 1.000000 
x[107] 1.000000 
x[113] 1.000000 
x[117] 1.000000 
x[118] 1.000000 
x[119] 0.250000 
x[121] 0.750000 
x[122] 1.000000 
x[123] 0.500000 
x[124] 1.000000 
x[125] 0.750000 
x[126] 1.000000 
x[127] 1.000000 
x[128] 1.000000 
x[129] 1.000000 
x[130] 1.000000 
x[131] 1.000000 
x[132] 1.000000 
x[133] 0.250000 
x[134] 1.000000 
x[135] 1.000000 
x[264] 0.171875 
x[436] 0.218750 
x[595] 0.093750 
x[728] 0.250000 
x[810] 0.750000 
x[819] 0.375000 
x[821] 0.375000 
x[1733] 0.109375 
x[1808] 0.125000 
x[2456] 0.625000 
x[2542] 0.046875 
x[2863] 0.078125 
x[5967] 0.125000 
x[9189] 0.250000 
x[19102] 0.765625 
x[22799] 0.062500 
x[29392] 0.625000 
x[1809] 0.171875 
x[9171] 0.750000 
x[1268] 0.359375 
x[6722] 0.250000 
x[6754] 0.250000 
x[8411] 0.250000 
x[15566] 0.250000 
x[16684] 0.140625 
x[389] 0.125000 
x[517] 0.218750 
x[607] 0.015625 
x[879] 0.625000 
x[887] 0.375000 
x[989] 0.453125 
x[1078] 0.468750 
x[3365] 0.382813 
x[19984] 0.367188 
x[20039] 0.250000 
x[1615] 0.250000 
x[26686] 0.125000 
x[33012] 0.125000 
x[30937] 1.000000 
x[8183] 0.750000 
x[13960] 0.250000 
x[10628] 0.234375 
x[1687] 0.015625 
x[13171] 0.031250 
x[8187] 0.500000 
x[26775] 0.156250 
x[1476] 0.312500 
x[29497] 0.125000 
x[12310] 0.500000 
x[32577] 0.875000 
x[12011] 0.375000 
x[32137] 0.125000 
x[10657] 0.218750 
x[7088] 0.531250 
x[20845] 0.171875 
x[29724] 0.078125 
x[5984] 0.304687 
x[6057] 0.078125 
x[19131] 0.617187 
x[14661] 0.500000 
x[356] 0.250000 
x[12247] 0.750000 

Gurobi 9.1.0 (win64) logging started Sun Dec 13 15:26:17 2020

Changed value of parameter LogFile to logs/iteration11
   Prev:   Default: 
Gurobi Optimizer version 9.1.0 build v9.1.0rc0 (win64)
Thread count: 4 physical cores, 8 logical processors, using up to 8 threads
Optimize a model with 136 rows, 636 columns and 2549 nonzeros
Model fingerprint: 0x1c6ecb8d
Coefficient statistics:
  Matrix range     [1e+00, 1e+00]
  Objective range  [1e+03, 4e+03]
  Bounds range     [0e+00, 0e+00]
  RHS range        [1e+00, 1e+00]
Presolve removed 27 rows and 27 columns
Presolve time: 0.00s
Presolved: 109 rows, 609 columns, 2521 nonzeros

Iteration    Objective       Primal Inf.    Dual Inf.      Time
       0    7.5777667e+04   8.300000e+01   0.000000e+00      0s
     331    1.0888642e+05   0.000000e+00   0.000000e+00      0s

Solved in 331 iterations and 0.01 seconds
Optimal objective  1.088864167e+05

Solutionx[5] 0.367188 
x[12] 0.382812 
x[24] 1.000000 
x[26] 0.304687 
x[27] 0.695313 
x[37] 1.000000 
x[41] 0.187500 
x[43] 0.437500 
x[44] 0.250000 
x[45] 0.125000 
x[46] 0.250000 
x[47] 0.250000 
x[54] 1.000000 
x[55] 1.000000 
x[60] 0.750000 
x[64] 1.000000 
x[65] 0.250000 
x[67] 0.500000 
x[70] 1.000000 
x[71] 0.500000 
x[72] 1.000000 
x[74] 1.000000 
x[76] 1.000000 
x[77] 1.000000 
x[78] 1.000000 
x[82] 1.000000 
x[83] 1.000000 
x[92] 0.750000 
x[100] 0.250000 
x[101] 1.000000 
x[102] 1.000000 
x[103] 1.000000 
x[104] 1.000000 
x[107] 1.000000 
x[113] 1.000000 
x[117] 1.000000 
x[118] 1.000000 
x[119] 0.250000 
x[121] 0.750000 
x[122] 1.000000 
x[123] 0.500000 
x[124] 1.000000 
x[125] 0.750000 
x[126] 1.000000 
x[127] 1.000000 
x[128] 1.000000 
x[129] 1.000000 
x[130] 1.000000 
x[131] 1.000000 
x[132] 1.000000 
x[133] 0.250000 
x[134] 1.000000 
x[135] 1.000000 
x[264] 0.171875 
x[436] 0.218750 
x[595] 0.093750 
x[728] 0.250000 
x[810] 0.750000 
x[819] 0.375000 
x[821] 0.375000 
x[1733] 0.109375 
x[1808] 0.125000 
x[2456] 0.625000 
x[2542] 0.046875 
x[2863] 0.078125 
x[5967] 0.125000 
x[9189] 0.250000 
x[19102] 0.765625 
x[22799] 0.062500 
x[29392] 0.625000 
x[1809] 0.171875 
x[9171] 0.750000 
x[1268] 0.359375 
x[6722] 0.250000 
x[6754] 0.250000 
x[8411] 0.250000 
x[15566] 0.250000 
x[16684] 0.140625 
x[389] 0.125000 
x[517] 0.218750 
x[607] 0.015625 
x[879] 0.625000 
x[887] 0.375000 
x[989] 0.453125 
x[1078] 0.468750 
x[3365] 0.382813 
x[19984] 0.367188 
x[20039] 0.250000 
x[1615] 0.250000 
x[26686] 0.125000 
x[33012] 0.125000 
x[30937] 1.000000 
x[8183] 0.750000 
x[13960] 0.250000 
x[10628] 0.234375 
x[1687] 0.015625 
x[13171] 0.031250 
x[8187] 0.500000 
x[26775] 0.156250 
x[1476] 0.312500 
x[29497] 0.125000 
x[12310] 0.500000 
x[32577] 0.875000 
x[12011] 0.375000 
x[32137] 0.125000 
x[10657] 0.218750 
x[7088] 0.531250 
x[20845] 0.171875 
x[29724] 0.078125 
x[5984] 0.304687 
x[6057] 0.078125 
x[19131] 0.617187 
x[14661] 0.500000 
x[356] 0.250000 
x[12247] 0.750000 
